benchmarks_vrp/CMT2/fixed_c/CMT2_6.vrp
NAME: CMT2_6
TYPE: CVRP
COMMENT: 835.26 - Cluster Nr.6
DIMENSION: 7
CAPACITY: 140
EDGE_WEIGHT_TYPE: EUC_2D
NODE_COORD_TYPE: TWOD_COORDS
NODE_COORD_SECTION: 
1 16 19
3 12 17
2 11 28
4 6 25
5 22 22
6 40 40
7 15 14
DEPOT_SECTION: 
6
-1
DEMAND_SECTION: 
1 18
5 18
2 6
4 26
3 15
7 11
6 0
EOF
