benchmarks_vrp/CMT2/fixed_c/CMT2_6.tour
NAME: CMT2_6 solution
TYPE: TOUR
TOUR_SECTION:
6 2 4 3 7 1 5 -1
-1
EOF